c "random instance"
p edges 150 2172
e 1 5
e 1 6
e 1 12
e 1 15
e 1 16
e 1 18
e 1 19
e 1 21
e 1 22
e 1 29
e 1 34
e 1 45
e 1 49
e 1 51
e 1 55
e 1 59
e 1 74
e 1 79
e 1 80
e 1 81
e 1 87
e 1 89
e 1 90
e 1 91
e 1 92
e 1 95
e 1 106
e 1 121
e 1 123
e 1 126
e 1 137
e 1 145
e 1 149
e 2 3
e 2 8
e 2 11
e 2 15
e 2 20
e 2 22
e 2 25
e 2 26
e 2 29
e 2 30
e 2 39
e 2 41
e 2 43
e 2 46
e 2 47
e 2 48
e 2 51
e 2 56
e 2 58
e 2 65
e 2 74
e 2 79
e 2 81
e 2 87
e 2 91
e 2 92
e 2 101
e 2 103
e 2 104
e 2 108
e 2 112
e 2 128
e 2 130
e 2 132
e 2 139
e 2 149
e 2 150
e 3 10
e 3 15
e 3 16
e 3 20
e 3 31
e 3 32
e 3 36
e 3 38
e 3 42
e 3 45
e 3 49
e 3 58
e 3 71
e 3 88
e 3 95
e 3 97
e 3 98
e 3 109
e 3 114
e 3 115
e 3 121
e 3 142
e 3 147
e 3 148
e 3 149
e 4 10
e 4 12
e 4 15
e 4 16
e 4 22
e 4 35
e 4 39
e 4 48
e 4 60
e 4 71
e 4 73
e 4 76
e 4 78
e 4 79
e 4 81
e 4 93
e 4 104
e 4 105
e 4 112
e 4 115
e 4 121
e 4 125
e 4 128
e 4 130
e 5 8
e 5 10
e 5 11
e 5 15
e 5 18
e 5 19
e 5 27
e 5 31
e 5 37
e 5 42
e 5 44
e 5 45
e 5 46
e 5 50
e 5 52
e 5 57
e 5 58
e 5 59
e 5 67
e 5 78
e 5 79
e 5 82
e 5 84
e 5 86
e 5 87
e 5 92
e 5 96
e 5 107
e 5 108
e 5 120
e 5 133
e 5 134
e 5 138
e 5 143
e 5 144
e 5 145
e 5 147
e 6 13
e 6 15
e 6 17
e 6 23
e 6 30
e 6 31
e 6 32
e 6 34
e 6 35
e 6 36
e 6 52
e 6 56
e 6 60
e 6 63
e 6 64
e 6 70
e 6 75
e 6 80
e 6 81
e 6 82
e 6 85
e 6 91
e 6 101
e 6 118
e 6 119
e 6 122
e 6 146
e 7 14
e 7 16
e 7 19
e 7 22
e 7 28
e 7 30
e 7 32
e 7 41
e 7 45
e 7 47
e 7 48
e 7 58
e 7 64
e 7 68
e 7 83
e 7 95
e 7 103
e 7 113
e 7 118
e 7 119
e 7 121
e 7 123
e 7 134
e 7 138
e 7 140
e 7 142
e 7 144
e 7 145
e 7 146
e 7 148
e 8 15
e 8 23
e 8 25
e 8 31
e 8 53
e 8 58
e 8 61
e 8 62
e 8 67
e 8 82
e 8 90
e 8 94
e 8 100
e 8 101
e 8 108
e 8 110
e 8 114
e 8 116
e 8 121
e 8 128
e 8 131
e 8 133
e 8 138
e 8 144
e 9 29
e 9 32
e 9 34
e 9 41
e 9 42
e 9 45
e 9 51
e 9 54
e 9 62
e 9 63
e 9 67
e 9 79
e 9 90
e 9 91
e 9 93
e 9 106
e 9 108
e 9 110
e 9 112
e 9 119
e 9 125
e 9 131
e 9 132
e 9 137
e 9 147
e 10 12
e 10 16
e 10 28
e 10 38
e 10 46
e 10 48
e 10 50
e 10 56
e 10 60
e 10 64
e 10 65
e 10 70
e 10 73
e 10 77
e 10 124
e 10 131
e 10 133
e 10 137
e 10 139
e 10 141
e 11 20
e 11 22
e 11 27
e 11 30
e 11 31
e 11 37
e 11 40
e 11 48
e 11 50
e 11 52
e 11 59
e 11 70
e 11 75
e 11 76
e 11 79
e 11 90
e 11 99
e 11 110
e 11 132
e 11 135
e 11 147
e 11 149
e 11 150
e 12 14
e 12 20
e 12 21
e 12 26
e 12 29
e 12 31
e 12 35
e 12 40
e 12 41
e 12 42
e 12 44
e 12 51
e 12 63
e 12 75
e 12 81
e 12 86
e 12 90
e 12 105
e 12 108
e 12 109
e 12 110
e 12 111
e 12 121
e 12 126
e 12 128
e 12 131
e 12 134
e 12 145
e 13 14
e 13 16
e 13 17
e 13 18
e 13 24
e 13 26
e 13 27
e 13 28
e 13 36
e 13 37
e 13 47
e 13 53
e 13 56
e 13 63
e 13 65
e 13 68
e 13 73
e 13 79
e 13 94
e 13 101
e 13 105
e 13 109
e 13 110
e 13 113
e 13 130
e 14 20
e 14 29
e 14 30
e 14 39
e 14 41
e 14 45
e 14 48
e 14 52
e 14 53
e 14 57
e 14 60
e 14 62
e 14 63
e 14 64
e 14 65
e 14 76
e 14 78
e 14 80
e 14 84
e 14 87
e 14 91
e 14 97
e 14 101
e 14 102
e 14 113
e 14 119
e 14 120
e 14 121
e 14 130
e 14 138
e 14 141
e 14 142
e 14 145
e 14 147
e 15 28
e 15 30
e 15 31
e 15 33
e 15 34
e 15 37
e 15 42
e 15 58
e 15 62
e 15 67
e 15 72
e 15 75
e 15 83
e 15 85
e 15 90
e 15 92
e 15 102
e 15 111
e 15 114
e 15 118
e 15 120
e 15 148
e 15 149
e 16 18
e 16 19
e 16 24
e 16 29
e 16 39
e 16 44
e 16 60
e 16 63
e 16 81
e 16 90
e 16 93
e 16 97
e 16 100
e 16 113
e 16 126
e 16 135
e 16 140
e 16 144
e 16 147
e 16 150
e 17 18
e 17 25
e 17 26
e 17 27
e 17 30
e 17 35
e 17 36
e 17 46
e 17 51
e 17 66
e 17 75
e 17 76
e 17 79
e 17 81
e 17 83
e 17 85
e 17 88
e 17 91
e 17 92
e 17 94
e 17 97
e 17 103
e 17 104
e 17 119
e 17 137
e 18 19
e 18 22
e 18 33
e 18 34
e 18 37
e 18 50
e 18 55
e 18 59
e 18 61
e 18 66
e 18 71
e 18 99
e 18 100
e 18 101
e 18 103
e 18 117
e 18 133
e 18 138
e 18 146
e 19 23
e 19 31
e 19 33
e 19 40
e 19 41
e 19 51
e 19 52
e 19 55
e 19 62
e 19 63
e 19 69
e 19 70
e 19 72
e 19 79
e 19 82
e 19 83
e 19 84
e 19 87
e 19 88
e 19 89
e 19 94
e 19 99
e 19 108
e 19 111
e 19 126
e 19 129
e 19 131
e 19 135
e 19 136
e 19 138
e 19 143
e 20 24
e 20 29
e 20 31
e 20 38
e 20 39
e 20 48
e 20 49
e 20 52
e 20 54
e 20 65
e 20 67
e 20 69
e 20 76
e 20 77
e 20 85
e 20 86
e 20 87
e 20 94
e 20 96
e 20 98
e 20 99
e 20 104
e 20 113
e 20 114
e 20 115
e 20 117
e 20 137
e 20 139
e 20 141
e 20 142
e 20 144
e 20 145
e 20 147
e 21 31
e 21 32
e 21 36
e 21 38
e 21 53
e 21 54
e 21 55
e 21 57
e 21 58
e 21 62
e 21 65
e 21 69
e 21 82
e 21 88
e 21 92
e 21 93
e 21 108
e 21 114
e 21 125
e 21 126
e 21 138
e 21 140
e 21 143
e 21 150
e 22 26
e 22 34
e 22 35
e 22 44
e 22 54
e 22 58
e 22 64
e 22 72
e 22 73
e 22 76
e 22 84
e 22 95
e 22 100
e 22 102
e 22 104
e 22 105
e 22 108
e 22 118
e 22 125
e 22 129
e 22 133
e 22 134
e 22 138
e 22 139
e 22 142
e 22 145
e 23 35
e 23 40
e 23 49
e 23 56
e 23 61
e 23 62
e 23 65
e 23 73
e 23 75
e 23 78
e 23 79
e 23 82
e 23 84
e 23 94
e 23 100
e 23 104
e 23 116
e 23 128
e 23 129
e 23 131
e 23 134
e 23 145
e 24 31
e 24 32
e 24 38
e 24 46
e 24 50
e 24 53
e 24 54
e 24 56
e 24 58
e 24 64
e 24 65
e 24 74
e 24 87
e 24 93
e 24 98
e 24 101
e 24 108
e 24 109
e 24 111
e 24 125
e 24 136
e 24 141
e 24 146
e 24 149
e 25 31
e 25 41
e 25 57
e 25 62
e 25 63
e 25 72
e 25 73
e 25 74
e 25 81
e 25 86
e 25 89
e 25 95
e 25 100
e 25 107
e 25 108
e 25 110
e 25 114
e 25 117
e 25 120
e 25 121
e 25 129
e 25 137
e 25 147
e 26 30
e 26 31
e 26 40
e 26 41
e 26 44
e 26 45
e 26 51
e 26 53
e 26 63
e 26 70
e 26 71
e 26 79
e 26 87
e 26 90
e 26 93
e 26 106
e 26 112
e 26 118
e 26 126
e 26 129
e 26 132
e 26 142
e 26 145
e 27 36
e 27 39
e 27 51
e 27 57
e 27 58
e 27 68
e 27 74
e 27 83
e 27 89
e 27 90
e 27 91
e 27 108
e 27 109
e 27 113
e 27 118
e 27 120
e 27 133
e 27 134
e 27 136
e 27 143
e 27 150
e 28 46
e 28 47
e 28 50
e 28 60
e 28 66
e 28 77
e 28 78
e 28 79
e 28 84
e 28 86
e 28 89
e 28 90
e 28 97
e 28 107
e 28 110
e 28 115
e 28 118
e 28 121
e 28 122
e 28 123
e 28 136
e 28 140
e 28 142
e 28 146
e 29 30
e 29 46
e 29 59
e 29 70
e 29 75
e 29 77
e 29 81
e 29 91
e 29 97
e 29 102
e 29 103
e 29 111
e 29 114
e 29 117
e 29 120
e 29 122
e 29 127
e 29 132
e 29 133
e 29 142
e 29 150
e 30 33
e 30 43
e 30 55
e 30 65
e 30 69
e 30 71
e 30 80
e 30 83
e 30 92
e 30 94
e 30 95
e 30 99
e 30 115
e 30 126
e 30 132
e 30 135
e 30 138
e 30 146
e 31 34
e 31 38
e 31 39
e 31 40
e 31 43
e 31 44
e 31 48
e 31 49
e 31 50
e 31 59
e 31 78
e 31 86
e 31 91
e 31 93
e 31 96
e 31 97
e 31 101
e 31 102
e 31 106
e 31 118
e 31 121
e 31 130
e 31 133
e 31 150
e 32 37
e 32 41
e 32 42
e 32 65
e 32 68
e 32 77
e 32 79
e 32 81
e 32 84
e 32 93
e 32 101
e 32 102
e 32 109
e 32 117
e 32 118
e 32 126
e 32 127
e 32 130
e 32 131
e 32 133
e 32 134
e 32 139
e 32 149
e 33 36
e 33 45
e 33 56
e 33 60
e 33 64
e 33 66
e 33 68
e 33 70
e 33 73
e 33 74
e 33 84
e 33 85
e 33 88
e 33 89
e 33 96
e 33 97
e 33 110
e 33 118
e 33 119
e 33 120
e 33 130
e 33 134
e 33 136
e 33 138
e 33 142
e 33 143
e 33 145
e 34 35
e 34 36
e 34 42
e 34 48
e 34 49
e 34 50
e 34 55
e 34 56
e 34 57
e 34 61
e 34 67
e 34 68
e 34 78
e 34 84
e 34 91
e 34 92
e 34 93
e 34 97
e 34 98
e 34 110
e 34 114
e 34 116
e 34 118
e 34 126
e 34 127
e 34 134
e 34 137
e 34 144
e 34 147
e 35 36
e 35 40
e 35 52
e 35 53
e 35 55
e 35 56
e 35 66
e 35 69
e 35 79
e 35 81
e 35 87
e 35 95
e 35 102
e 35 107
e 35 114
e 35 115
e 35 119
e 35 123
e 35 139
e 36 43
e 36 47
e 36 50
e 36 51
e 36 55
e 36 57
e 36 58
e 36 61
e 36 63
e 36 66
e 36 69
e 36 71
e 36 72
e 36 73
e 36 75
e 36 83
e 36 86
e 36 87
e 36 89
e 36 90
e 36 97
e 36 102
e 36 111
e 36 115
e 36 135
e 36 136
e 36 149
e 37 41
e 37 45
e 37 49
e 37 50
e 37 52
e 37 55
e 37 66
e 37 67
e 37 76
e 37 81
e 37 83
e 37 88
e 37 94
e 37 95
e 37 107
e 37 113
e 37 118
e 37 119
e 37 129
e 37 131
e 37 139
e 38 41
e 38 46
e 38 61
e 38 70
e 38 72
e 38 77
e 38 78
e 38 85
e 38 91
e 38 94
e 38 95
e 38 103
e 38 110
e 38 112
e 38 117
e 38 127
e 38 142
e 38 143
e 38 147
e 39 67
e 39 69
e 39 80
e 39 84
e 39 86
e 39 89
e 39 91
e 39 110
e 39 118
e 39 130
e 39 141
e 39 142
e 39 149
e 40 48
e 40 50
e 40 61
e 40 62
e 40 65
e 40 72
e 40 75
e 40 80
e 40 88
e 40 90
e 40 94
e 40 95
e 40 96
e 40 97
e 40 102
e 40 104
e 40 106
e 40 109
e 40 111
e 40 116
e 40 125
e 40 134
e 40 136
e 40 138
e 41 43
e 41 45
e 41 52
e 41 67
e 41 70
e 41 71
e 41 80
e 41 85
e 41 89
e 41 94
e 41 100
e 41 101
e 41 110
e 41 114
e 41 116
e 41 122
e 41 127
e 41 132
e 41 135
e 41 147
e 42 45
e 42 50
e 42 51
e 42 55
e 42 57
e 42 58
e 42 66
e 42 73
e 42 78
e 42 79
e 42 89
e 42 91
e 42 93
e 42 94
e 42 98
e 42 101
e 42 102
e 42 103
e 42 107
e 42 108
e 42 109
e 42 113
e 42 119
e 42 121
e 42 138
e 42 140
e 42 143
e 42 147
e 43 44
e 43 47
e 43 52
e 43 54
e 43 56
e 43 61
e 43 62
e 43 63
e 43 71
e 43 77
e 43 94
e 43 99
e 43 102
e 43 103
e 43 104
e 43 107
e 43 109
e 43 114
e 43 116
e 43 117
e 43 124
e 43 126
e 43 127
e 43 131
e 43 134
e 43 146
e 43 148
e 44 48
e 44 55
e 44 59
e 44 62
e 44 65
e 44 73
e 44 74
e 44 75
e 44 77
e 44 78
e 44 83
e 44 86
e 44 90
e 44 102
e 44 107
e 44 118
e 44 121
e 44 125
e 44 133
e 44 136
e 44 148
e 45 46
e 45 50
e 45 51
e 45 53
e 45 54
e 45 55
e 45 58
e 45 60
e 45 62
e 45 68
e 45 70
e 45 71
e 45 72
e 45 83
e 45 88
e 45 90
e 45 96
e 45 102
e 45 109
e 45 113
e 45 114
e 45 118
e 45 125
e 45 127
e 45 137
e 45 146
e 45 147
e 46 47
e 46 54
e 46 58
e 46 66
e 46 67
e 46 78
e 46 81
e 46 85
e 46 87
e 46 91
e 46 98
e 46 105
e 46 109
e 46 111
e 46 117
e 46 121
e 46 123
e 46 124
e 46 131
e 46 141
e 46 142
e 46 145
e 46 146
e 46 147
e 46 148
e 46 150
e 47 50
e 47 63
e 47 67
e 47 75
e 47 78
e 47 87
e 47 90
e 47 95
e 47 96
e 47 110
e 47 112
e 47 117
e 47 121
e 47 123
e 47 124
e 47 126
e 47 128
e 47 132
e 47 142
e 47 149
e 48 63
e 48 78
e 48 83
e 48 84
e 48 85
e 48 87
e 48 94
e 48 100
e 48 110
e 48 111
e 48 117
e 48 119
e 48 121
e 48 128
e 48 129
e 48 130
e 48 132
e 48 135
e 48 136
e 48 137
e 48 143
e 48 145
e 48 150
e 49 54
e 49 56
e 49 58
e 49 64
e 49 70
e 49 74
e 49 75
e 49 78
e 49 83
e 49 85
e 49 89
e 49 92
e 49 93
e 49 102
e 49 110
e 49 115
e 49 119
e 49 128
e 49 146
e 50 59
e 50 71
e 50 82
e 50 97
e 50 105
e 50 107
e 50 109
e 50 110
e 50 112
e 50 115
e 50 120
e 50 121
e 50 127
e 50 128
e 50 131
e 50 132
e 50 136
e 50 142
e 50 143
e 51 55
e 51 61
e 51 63
e 51 64
e 51 65
e 51 68
e 51 80
e 51 84
e 51 95
e 51 97
e 51 100
e 51 101
e 51 105
e 51 110
e 51 117
e 51 118
e 51 119
e 51 121
e 51 124
e 51 141
e 51 146
e 51 147
e 52 53
e 52 59
e 52 62
e 52 64
e 52 66
e 52 68
e 52 73
e 52 81
e 52 87
e 52 91
e 52 94
e 52 102
e 52 107
e 52 108
e 52 133
e 52 143
e 53 63
e 53 65
e 53 67
e 53 74
e 53 82
e 53 92
e 53 100
e 53 104
e 53 113
e 53 123
e 53 127
e 53 140
e 53 148
e 54 56
e 54 57
e 54 58
e 54 60
e 54 63
e 54 66
e 54 69
e 54 70
e 54 77
e 54 80
e 54 82
e 54 86
e 54 101
e 54 106
e 54 112
e 54 118
e 54 119
e 54 120
e 54 130
e 54 134
e 54 137
e 54 138
e 54 141
e 54 142
e 54 144
e 55 58
e 55 65
e 55 68
e 55 73
e 55 82
e 55 83
e 55 85
e 55 91
e 55 97
e 55 100
e 55 110
e 55 114
e 55 115
e 55 117
e 55 123
e 55 125
e 55 126
e 55 128
e 55 132
e 55 139
e 55 140
e 55 142
e 55 148
e 56 61
e 56 70
e 56 71
e 56 74
e 56 79
e 56 82
e 56 83
e 56 94
e 56 108
e 56 110
e 56 112
e 56 115
e 56 123
e 56 142
e 56 143
e 56 145
e 56 146
e 56 147
e 56 148
e 57 62
e 57 67
e 57 68
e 57 74
e 57 92
e 57 94
e 57 96
e 57 101
e 57 102
e 57 103
e 57 106
e 57 109
e 57 117
e 57 128
e 57 135
e 57 147
e 57 148
e 58 61
e 58 63
e 58 66
e 58 74
e 58 90
e 58 92
e 58 94
e 58 98
e 58 100
e 58 107
e 58 110
e 58 116
e 58 117
e 58 124
e 58 138
e 58 147
e 59 63
e 59 68
e 59 77
e 59 81
e 59 102
e 59 104
e 59 108
e 59 117
e 59 133
e 59 139
e 59 146
e 60 65
e 60 68
e 60 69
e 60 70
e 60 73
e 60 81
e 60 93
e 60 99
e 60 105
e 60 117
e 60 126
e 60 129
e 60 131
e 60 132
e 60 134
e 60 141
e 60 150
e 61 69
e 61 72
e 61 75
e 61 85
e 61 88
e 61 100
e 61 103
e 61 105
e 61 106
e 61 107
e 61 111
e 61 112
e 61 113
e 61 121
e 61 130
e 61 133
e 61 136
e 61 143
e 62 63
e 62 65
e 62 66
e 62 73
e 62 75
e 62 83
e 62 91
e 62 104
e 62 105
e 62 109
e 62 124
e 62 127
e 62 131
e 62 138
e 62 144
e 63 69
e 63 73
e 63 76
e 63 77
e 63 81
e 63 85
e 63 87
e 63 88
e 63 90
e 63 91
e 63 92
e 63 98
e 63 100
e 63 107
e 63 114
e 63 115
e 63 117
e 63 119
e 63 122
e 63 123
e 63 125
e 63 127
e 63 129
e 63 143
e 63 148
e 64 65
e 64 73
e 64 76
e 64 78
e 64 79
e 64 94
e 64 98
e 64 108
e 64 112
e 64 113
e 64 116
e 64 122
e 64 127
e 64 130
e 64 132
e 64 133
e 64 134
e 64 135
e 64 140
e 64 150
e 65 69
e 65 80
e 65 87
e 65 90
e 65 92
e 65 95
e 65 97
e 65 101
e 65 102
e 65 106
e 65 108
e 65 109
e 65 111
e 65 116
e 65 132
e 65 144
e 66 74
e 66 78
e 66 82
e 66 83
e 66 88
e 66 98
e 66 101
e 66 102
e 66 103
e 66 105
e 66 117
e 66 118
e 66 124
e 66 125
e 66 133
e 66 136
e 66 138
e 66 141
e 67 70
e 67 73
e 67 75
e 67 76
e 67 80
e 67 83
e 67 94
e 67 95
e 67 97
e 67 98
e 67 99
e 67 102
e 67 107
e 67 108
e 67 109
e 67 111
e 67 120
e 67 128
e 67 130
e 67 139
e 67 142
e 68 91
e 68 93
e 68 105
e 68 109
e 68 117
e 68 120
e 68 127
e 68 128
e 68 137
e 68 149
e 69 71
e 69 79
e 69 82
e 69 87
e 69 95
e 69 99
e 69 104
e 69 108
e 69 118
e 69 120
e 69 121
e 69 137
e 69 143
e 69 147
e 69 149
e 70 78
e 70 79
e 70 84
e 70 100
e 70 101
e 70 105
e 70 117
e 70 132
e 70 147
e 70 148
e 71 75
e 71 81
e 71 83
e 71 86
e 71 95
e 71 96
e 71 108
e 71 115
e 71 119
e 71 129
e 71 131
e 71 133
e 71 142
e 71 145
e 71 147
e 72 80
e 72 87
e 72 94
e 72 103
e 72 117
e 72 121
e 72 126
e 72 130
e 72 139
e 72 140
e 72 142
e 72 148
e 73 77
e 73 83
e 73 84
e 73 105
e 73 114
e 73 124
e 73 136
e 73 137
e 73 140
e 73 149
e 74 82
e 74 85
e 74 99
e 74 103
e 74 110
e 74 111
e 74 112
e 74 113
e 74 126
e 74 129
e 74 136
e 74 138
e 75 82
e 75 89
e 75 94
e 75 98
e 75 101
e 75 103
e 75 104
e 75 108
e 75 114
e 75 116
e 75 122
e 75 126
e 75 127
e 75 133
e 75 146
e 75 148
e 76 81
e 76 87
e 76 88
e 76 89
e 76 96
e 76 98
e 76 104
e 76 107
e 76 114
e 76 125
e 76 138
e 76 139
e 76 146
e 77 80
e 77 88
e 77 90
e 77 98
e 77 111
e 77 119
e 77 126
e 77 127
e 77 138
e 77 142
e 77 144
e 78 83
e 78 85
e 78 89
e 78 90
e 78 91
e 78 93
e 78 97
e 78 98
e 78 107
e 78 117
e 78 127
e 78 129
e 78 144
e 78 146
e 79 83
e 79 84
e 79 85
e 79 89
e 79 94
e 79 103
e 79 109
e 79 110
e 79 111
e 79 112
e 79 113
e 79 114
e 79 120
e 79 121
e 79 127
e 79 130
e 79 133
e 79 140
e 79 141
e 79 142
e 79 144
e 79 145
e 79 146
e 79 147
e 80 82
e 80 85
e 80 86
e 80 89
e 80 94
e 80 114
e 80 125
e 80 126
e 80 131
e 80 141
e 80 149
e 80 150
e 81 83
e 81 84
e 81 114
e 81 121
e 81 129
e 81 132
e 81 135
e 81 141
e 81 143
e 81 146
e 82 91
e 82 106
e 82 108
e 82 117
e 82 118
e 82 120
e 82 123
e 82 133
e 82 135
e 82 136
e 82 147
e 83 90
e 83 94
e 83 97
e 83 99
e 83 100
e 83 112
e 83 114
e 83 117
e 83 118
e 83 126
e 83 142
e 83 144
e 83 150
e 84 85
e 84 87
e 84 95
e 84 96
e 84 97
e 84 103
e 84 106
e 84 112
e 84 117
e 84 119
e 84 133
e 84 134
e 84 136
e 84 137
e 84 149
e 85 94
e 85 98
e 85 102
e 85 106
e 85 108
e 85 110
e 85 113
e 85 116
e 85 118
e 85 122
e 85 124
e 85 125
e 85 130
e 85 137
e 85 141
e 85 142
e 86 91
e 86 96
e 86 101
e 86 102
e 86 104
e 86 106
e 86 109
e 86 112
e 86 120
e 86 125
e 86 131
e 86 137
e 86 138
e 86 148
e 87 88
e 87 91
e 87 94
e 87 95
e 87 96
e 87 98
e 87 100
e 87 103
e 87 113
e 87 114
e 87 115
e 87 127
e 87 132
e 87 139
e 87 143
e 87 150
e 88 92
e 88 95
e 88 98
e 88 104
e 88 107
e 88 110
e 88 111
e 88 124
e 88 125
e 88 133
e 88 136
e 88 140
e 88 142
e 88 144
e 89 90
e 89 93
e 89 98
e 89 100
e 89 110
e 89 114
e 89 116
e 89 117
e 89 130
e 89 132
e 89 134
e 89 136
e 89 144
e 90 92
e 90 96
e 90 97
e 90 113
e 90 118
e 90 121
e 90 129
e 90 133
e 90 143
e 90 147
e 91 92
e 91 93
e 91 95
e 91 128
e 91 133
e 91 137
e 91 147
e 91 149
e 92 100
e 92 114
e 92 115
e 92 117
e 92 123
e 92 136
e 92 139
e 92 141
e 93 99
e 93 100
e 93 106
e 93 116
e 93 119
e 93 124
e 93 131
e 93 141
e 93 144
e 93 147
e 94 99
e 94 103
e 94 108
e 94 112
e 94 115
e 94 122
e 94 126
e 94 133
e 94 148
e 95 99
e 95 101
e 95 104
e 95 109
e 95 113
e 95 116
e 95 125
e 95 132
e 95 149
e 96 112
e 96 116
e 96 120
e 96 123
e 96 134
e 96 136
e 96 137
e 96 150
e 97 99
e 97 103
e 97 106
e 97 116
e 97 121
e 97 123
e 97 127
e 97 129
e 97 133
e 97 135
e 97 137
e 97 139
e 97 141
e 97 144
e 97 145
e 97 149
e 97 150
e 98 100
e 98 102
e 98 103
e 98 112
e 98 115
e 98 117
e 98 120
e 98 121
e 98 125
e 98 133
e 98 138
e 98 145
e 98 149
e 99 100
e 99 109
e 99 111
e 99 113
e 99 118
e 99 120
e 99 121
e 99 124
e 99 128
e 99 129
e 99 136
e 99 139
e 99 140
e 99 145
e 100 103
e 100 109
e 100 113
e 100 127
e 100 129
e 100 130
e 100 134
e 100 137
e 100 143
e 101 104
e 101 105
e 101 107
e 101 110
e 101 112
e 101 113
e 101 116
e 101 123
e 101 125
e 101 127
e 101 129
e 101 141
e 101 145
e 101 149
e 101 150
e 102 104
e 102 108
e 102 113
e 102 125
e 102 129
e 102 130
e 102 135
e 102 137
e 102 145
e 102 148
e 102 149
e 103 106
e 103 108
e 103 113
e 103 118
e 103 121
e 103 124
e 103 130
e 103 145
e 104 110
e 104 116
e 104 131
e 104 133
e 104 134
e 104 137
e 104 139
e 104 143
e 104 144
e 104 145
e 105 106
e 105 108
e 105 110
e 105 114
e 105 115
e 105 117
e 105 122
e 105 123
e 105 125
e 105 127
e 105 129
e 105 135
e 105 137
e 105 139
e 105 140
e 105 141
e 105 142
e 105 146
e 106 107
e 106 114
e 106 117
e 106 122
e 106 135
e 106 139
e 106 141
e 106 145
e 107 109
e 107 114
e 107 118
e 107 119
e 107 128
e 107 133
e 107 134
e 107 148
e 108 109
e 108 113
e 108 120
e 108 122
e 108 127
e 108 130
e 108 150
e 109 110
e 109 115
e 109 117
e 109 121
e 109 131
e 109 135
e 110 115
e 110 120
e 110 122
e 110 142
e 110 143
e 110 150
e 111 121
e 111 123
e 111 124
e 111 125
e 111 132
e 111 133
e 111 149
e 112 113
e 112 125
e 112 127
e 112 132
e 112 135
e 112 139
e 112 142
e 113 114
e 113 118
e 113 134
e 113 143
e 113 149
e 113 150
e 114 119
e 114 142
e 114 145
e 114 147
e 115 127
e 115 137
e 115 143
e 116 120
e 116 125
e 116 150
e 117 121
e 117 122
e 117 134
e 117 143
e 117 144
e 118 123
e 118 125
e 118 126
e 118 128
e 118 131
e 118 143
e 119 139
e 119 141
e 119 147
e 120 121
e 120 130
e 120 134
e 121 122
e 121 132
e 121 140
e 121 146
e 121 148
e 122 123
e 122 124
e 122 127
e 122 133
e 122 139
e 122 145
e 122 147
e 123 124
e 123 128
e 123 137
e 123 141
e 123 142
e 123 144
e 123 145
e 123 149
e 124 126
e 124 129
e 124 133
e 125 130
e 125 139
e 125 149
e 126 130
e 126 139
e 126 149
e 126 150
e 127 130
e 127 133
e 127 136
e 127 139
e 127 144
e 128 130
e 128 138
e 128 143
e 128 145
e 128 147
e 128 149
e 129 131
e 129 134
e 129 140
e 129 148
e 130 147
e 131 138
e 131 139
e 131 150
e 132 137
e 133 136
e 133 138
e 133 140
e 133 144
e 133 149
e 134 137
e 134 138
e 134 145
e 134 148
e 135 137
e 135 145
e 135 148
e 136 138
e 136 143
e 136 144
e 136 147
e 137 150
e 138 139
e 138 144
e 138 147
e 139 144
e 139 149
e 140 147
e 140 150
e 141 148
e 142 150
e 143 144
e 144 147
e 146 147
e 148 150
